p cnf 255 865
c p weight 102 -1 0
c p weight -102 1 0
c p weight 104 6.12323399573676603586882014729198302312846062338790031898128063403419218957424163818359375E-17 0
c p weight -104 1 0
c p weight 105 1 0
c p weight -105 1 0
c p weight 106 -1 0
c p weight -106 1 0
c p weight 108 -1 0
c p weight -108 1 0
c p weight 111 -1 0
c p weight -111 1 0
c p weight 114 -1 0
c p weight -114 1 0
c p weight 117 -1 0
c p weight -117 1 0
c p weight 120 -1 0
c p weight -120 1 0
c p weight 123 -1 0
c p weight -123 1 0
c p weight 126 -1 0
c p weight -126 1 0
c p weight 129 -1 0
c p weight -129 1 0
c p weight 132 -1 0
c p weight -132 1 0
c p weight 135 -1 0
c p weight -135 1 0
c p weight 138 -1 0
c p weight -138 1 0
c p weight 141 -1 0
c p weight -141 1 0
c p weight 144 -1 0
c p weight -144 1 0
c p weight 147 -1 0
c p weight -147 1 0
c p weight 150 -1 0
c p weight -150 1 0
c p weight 153 -1 0
c p weight -153 1 0
c p weight 156 -1 0
c p weight -156 1 0
c p weight 159 -1 0
c p weight -159 1 0
c p weight 162 -1 0
c p weight -162 1 0
c p weight 165 -1 0
c p weight -165 1 0
c p weight 168 -1 0
c p weight -168 1 0
c p weight 171 -1 0
c p weight -171 1 0
c p weight 174 -1 0
c p weight -174 1 0
c p weight 177 -1 0
c p weight -177 1 0
c p weight 180 -1 0
c p weight -180 1 0
c p weight 183 -1 0
c p weight -183 1 0
c p weight 186 -1 0
c p weight -186 1 0
c p weight 189 -1 0
c p weight -189 1 0
c p weight 192 -1 0
c p weight -192 1 0
c p weight 195 -1 0
c p weight -195 1 0
c p weight 198 -1 0
c p weight -198 1 0
c p weight 201 -1 0
c p weight -201 1 0
c p weight 204 -1 0
c p weight -204 1 0
c p weight 207 -1 0
c p weight -207 1 0
c p weight 210 -1 0
c p weight -210 1 0
c p weight 213 -1 0
c p weight -213 1 0
c p weight 216 -1 0
c p weight -216 1 0
c p weight 219 -1 0
c p weight -219 1 0
c p weight 222 -1 0
c p weight -222 1 0
c p weight 225 -1 0
c p weight -225 1 0
c p weight 228 -1 0
c p weight -228 1 0
c p weight 231 -1 0
c p weight -231 1 0
c p weight 234 -1 0
c p weight -234 1 0
c p weight 237 -1 0
c p weight -237 1 0
c p weight 240 -1 0
c p weight -240 1 0
c p weight 243 -1 0
c p weight -243 1 0
c p weight 246 -1 0
c p weight -246 1 0
c p weight 249 -1 0
c p weight -249 1 0
c p weight 252 -1 0
c p weight -252 1 0
c p weight 255 -1 0
c p weight -255 1 0
-99 0
-97 0
-95 0
-93 0
-91 0
-89 0
-87 0
-85 0
-83 0
-81 0
-79 0
-77 0
-75 0
-73 0
-71 0
-69 0
-67 0
-65 0
-63 0
-61 0
-59 0
-57 0
-55 0
-53 0
-51 0
-49 0
-47 0
-45 0
-43 0
-41 0
-39 0
-37 0
-35 0
-33 0
-31 0
-29 0
-27 0
-25 0
-23 0
-21 0
-19 0
-17 0
-15 0
-13 0
-11 0
-9 0
-7 0
-5 0
-3 0
-1 0
101 99 -100 0
101 -99 100 0
-101 99 100 0
-101 -99 -100 0
-102 99 0
-102 100 0
102 -99 -100 0
103 -99 101 0
-103 99 101 0
-104 101 0
103 -104 -99 0
-103 -104 99 0
103 104 99 -101 0
-103 104 -99 -101 0
-105 101 0
103 -105 99 0
-103 -105 -99 0
103 105 -99 -101 0
-103 105 99 -101 0
-106 103 0
-106 101 0
-106 -99 0
106 -103 99 -101 0
107 103 -101 0
107 -103 101 0
-107 103 101 0
-107 -103 -101 0
-108 103 0
-108 101 0
108 -103 -101 0
109 103 -97 0
109 -103 97 0
-109 103 97 0
-109 -103 -97 0
110 107 -98 0
110 -107 98 0
-110 107 98 0
-110 -107 -98 0
-111 103 0
-111 98 0
-111 97 -107 0
-111 -97 107 0
111 -103 97 107 -98 0
111 -103 -97 -107 -98 0
112 109 -95 0
112 -109 95 0
-112 109 95 0
-112 -109 -95 0
113 98 -96 0
113 -98 96 0
-113 98 96 0
-113 -98 -96 0
-114 109 0
-114 96 0
-114 95 -98 0
-114 -95 98 0
114 -109 95 98 -96 0
114 -109 -95 -98 -96 0
115 112 -93 0
115 -112 93 0
-115 112 93 0
-115 -112 -93 0
116 96 -94 0
116 -96 94 0
-116 96 94 0
-116 -96 -94 0
-117 112 0
-117 94 0
-117 93 -96 0
-117 -93 96 0
117 -112 93 96 -94 0
117 -112 -93 -96 -94 0
118 115 -91 0
118 -115 91 0
-118 115 91 0
-118 -115 -91 0
119 94 -92 0
119 -94 92 0
-119 94 92 0
-119 -94 -92 0
-120 115 0
-120 92 0
-120 91 -94 0
-120 -91 94 0
120 -115 91 94 -92 0
120 -115 -91 -94 -92 0
121 118 -89 0
121 -118 89 0
-121 118 89 0
-121 -118 -89 0
122 92 -90 0
122 -92 90 0
-122 92 90 0
-122 -92 -90 0
-123 118 0
-123 90 0
-123 89 -92 0
-123 -89 92 0
123 -118 89 92 -90 0
123 -118 -89 -92 -90 0
124 121 -87 0
124 -121 87 0
-124 121 87 0
-124 -121 -87 0
125 90 -88 0
125 -90 88 0
-125 90 88 0
-125 -90 -88 0
-126 121 0
-126 88 0
-126 87 -90 0
-126 -87 90 0
126 -121 87 90 -88 0
126 -121 -87 -90 -88 0
127 124 -85 0
127 -124 85 0
-127 124 85 0
-127 -124 -85 0
128 88 -86 0
128 -88 86 0
-128 88 86 0
-128 -88 -86 0
-129 124 0
-129 86 0
-129 85 -88 0
-129 -85 88 0
129 -124 85 88 -86 0
129 -124 -85 -88 -86 0
130 127 -83 0
130 -127 83 0
-130 127 83 0
-130 -127 -83 0
131 86 -84 0
131 -86 84 0
-131 86 84 0
-131 -86 -84 0
-132 127 0
-132 84 0
-132 83 -86 0
-132 -83 86 0
132 -127 83 86 -84 0
132 -127 -83 -86 -84 0
133 130 -81 0
133 -130 81 0
-133 130 81 0
-133 -130 -81 0
134 84 -82 0
134 -84 82 0
-134 84 82 0
-134 -84 -82 0
-135 130 0
-135 82 0
-135 81 -84 0
-135 -81 84 0
135 -130 81 84 -82 0
135 -130 -81 -84 -82 0
136 133 -79 0
136 -133 79 0
-136 133 79 0
-136 -133 -79 0
137 82 -80 0
137 -82 80 0
-137 82 80 0
-137 -82 -80 0
-138 133 0
-138 80 0
-138 79 -82 0
-138 -79 82 0
138 -133 79 82 -80 0
138 -133 -79 -82 -80 0
139 136 -77 0
139 -136 77 0
-139 136 77 0
-139 -136 -77 0
140 80 -78 0
140 -80 78 0
-140 80 78 0
-140 -80 -78 0
-141 136 0
-141 78 0
-141 77 -80 0
-141 -77 80 0
141 -136 77 80 -78 0
141 -136 -77 -80 -78 0
142 139 -75 0
142 -139 75 0
-142 139 75 0
-142 -139 -75 0
143 78 -76 0
143 -78 76 0
-143 78 76 0
-143 -78 -76 0
-144 139 0
-144 76 0
-144 75 -78 0
-144 -75 78 0
144 -139 75 78 -76 0
144 -139 -75 -78 -76 0
145 142 -73 0
145 -142 73 0
-145 142 73 0
-145 -142 -73 0
146 76 -74 0
146 -76 74 0
-146 76 74 0
-146 -76 -74 0
-147 142 0
-147 74 0
-147 73 -76 0
-147 -73 76 0
147 -142 73 76 -74 0
147 -142 -73 -76 -74 0
148 145 -71 0
148 -145 71 0
-148 145 71 0
-148 -145 -71 0
149 74 -72 0
149 -74 72 0
-149 74 72 0
-149 -74 -72 0
-150 145 0
-150 72 0
-150 71 -74 0
-150 -71 74 0
150 -145 71 74 -72 0
150 -145 -71 -74 -72 0
151 148 -69 0
151 -148 69 0
-151 148 69 0
-151 -148 -69 0
152 72 -70 0
152 -72 70 0
-152 72 70 0
-152 -72 -70 0
-153 148 0
-153 70 0
-153 69 -72 0
-153 -69 72 0
153 -148 69 72 -70 0
153 -148 -69 -72 -70 0
154 151 -67 0
154 -151 67 0
-154 151 67 0
-154 -151 -67 0
155 70 -68 0
155 -70 68 0
-155 70 68 0
-155 -70 -68 0
-156 151 0
-156 68 0
-156 67 -70 0
-156 -67 70 0
156 -151 67 70 -68 0
156 -151 -67 -70 -68 0
157 154 -65 0
157 -154 65 0
-157 154 65 0
-157 -154 -65 0
158 68 -66 0
158 -68 66 0
-158 68 66 0
-158 -68 -66 0
-159 154 0
-159 66 0
-159 65 -68 0
-159 -65 68 0
159 -154 65 68 -66 0
159 -154 -65 -68 -66 0
160 157 -63 0
160 -157 63 0
-160 157 63 0
-160 -157 -63 0
161 66 -64 0
161 -66 64 0
-161 66 64 0
-161 -66 -64 0
-162 157 0
-162 64 0
-162 63 -66 0
-162 -63 66 0
162 -157 63 66 -64 0
162 -157 -63 -66 -64 0
163 160 -61 0
163 -160 61 0
-163 160 61 0
-163 -160 -61 0
164 64 -62 0
164 -64 62 0
-164 64 62 0
-164 -64 -62 0
-165 160 0
-165 62 0
-165 61 -64 0
-165 -61 64 0
165 -160 61 64 -62 0
165 -160 -61 -64 -62 0
166 163 -59 0
166 -163 59 0
-166 163 59 0
-166 -163 -59 0
167 62 -60 0
167 -62 60 0
-167 62 60 0
-167 -62 -60 0
-168 163 0
-168 60 0
-168 59 -62 0
-168 -59 62 0
168 -163 59 62 -60 0
168 -163 -59 -62 -60 0
169 166 -57 0
169 -166 57 0
-169 166 57 0
-169 -166 -57 0
170 60 -58 0
170 -60 58 0
-170 60 58 0
-170 -60 -58 0
-171 166 0
-171 58 0
-171 57 -60 0
-171 -57 60 0
171 -166 57 60 -58 0
171 -166 -57 -60 -58 0
172 169 -55 0
172 -169 55 0
-172 169 55 0
-172 -169 -55 0
173 58 -56 0
173 -58 56 0
-173 58 56 0
-173 -58 -56 0
-174 169 0
-174 56 0
-174 55 -58 0
-174 -55 58 0
174 -169 55 58 -56 0
174 -169 -55 -58 -56 0
175 172 -53 0
175 -172 53 0
-175 172 53 0
-175 -172 -53 0
176 56 -54 0
176 -56 54 0
-176 56 54 0
-176 -56 -54 0
-177 172 0
-177 54 0
-177 53 -56 0
-177 -53 56 0
177 -172 53 56 -54 0
177 -172 -53 -56 -54 0
178 175 -51 0
178 -175 51 0
-178 175 51 0
-178 -175 -51 0
179 54 -52 0
179 -54 52 0
-179 54 52 0
-179 -54 -52 0
-180 175 0
-180 52 0
-180 51 -54 0
-180 -51 54 0
180 -175 51 54 -52 0
180 -175 -51 -54 -52 0
181 178 -49 0
181 -178 49 0
-181 178 49 0
-181 -178 -49 0
182 52 -50 0
182 -52 50 0
-182 52 50 0
-182 -52 -50 0
-183 178 0
-183 50 0
-183 49 -52 0
-183 -49 52 0
183 -178 49 52 -50 0
183 -178 -49 -52 -50 0
184 181 -47 0
184 -181 47 0
-184 181 47 0
-184 -181 -47 0
185 50 -48 0
185 -50 48 0
-185 50 48 0
-185 -50 -48 0
-186 181 0
-186 48 0
-186 47 -50 0
-186 -47 50 0
186 -181 47 50 -48 0
186 -181 -47 -50 -48 0
187 184 -45 0
187 -184 45 0
-187 184 45 0
-187 -184 -45 0
188 48 -46 0
188 -48 46 0
-188 48 46 0
-188 -48 -46 0
-189 184 0
-189 46 0
-189 45 -48 0
-189 -45 48 0
189 -184 45 48 -46 0
189 -184 -45 -48 -46 0
190 187 -43 0
190 -187 43 0
-190 187 43 0
-190 -187 -43 0
191 46 -44 0
191 -46 44 0
-191 46 44 0
-191 -46 -44 0
-192 187 0
-192 44 0
-192 43 -46 0
-192 -43 46 0
192 -187 43 46 -44 0
192 -187 -43 -46 -44 0
193 190 -41 0
193 -190 41 0
-193 190 41 0
-193 -190 -41 0
194 44 -42 0
194 -44 42 0
-194 44 42 0
-194 -44 -42 0
-195 190 0
-195 42 0
-195 41 -44 0
-195 -41 44 0
195 -190 41 44 -42 0
195 -190 -41 -44 -42 0
196 193 -39 0
196 -193 39 0
-196 193 39 0
-196 -193 -39 0
197 42 -40 0
197 -42 40 0
-197 42 40 0
-197 -42 -40 0
-198 193 0
-198 40 0
-198 39 -42 0
-198 -39 42 0
198 -193 39 42 -40 0
198 -193 -39 -42 -40 0
199 196 -37 0
199 -196 37 0
-199 196 37 0
-199 -196 -37 0
200 40 -38 0
200 -40 38 0
-200 40 38 0
-200 -40 -38 0
-201 196 0
-201 38 0
-201 37 -40 0
-201 -37 40 0
201 -196 37 40 -38 0
201 -196 -37 -40 -38 0
202 199 -35 0
202 -199 35 0
-202 199 35 0
-202 -199 -35 0
203 38 -36 0
203 -38 36 0
-203 38 36 0
-203 -38 -36 0
-204 199 0
-204 36 0
-204 35 -38 0
-204 -35 38 0
204 -199 35 38 -36 0
204 -199 -35 -38 -36 0
205 202 -33 0
205 -202 33 0
-205 202 33 0
-205 -202 -33 0
206 36 -34 0
206 -36 34 0
-206 36 34 0
-206 -36 -34 0
-207 202 0
-207 34 0
-207 33 -36 0
-207 -33 36 0
207 -202 33 36 -34 0
207 -202 -33 -36 -34 0
208 205 -31 0
208 -205 31 0
-208 205 31 0
-208 -205 -31 0
209 34 -32 0
209 -34 32 0
-209 34 32 0
-209 -34 -32 0
-210 205 0
-210 32 0
-210 31 -34 0
-210 -31 34 0
210 -205 31 34 -32 0
210 -205 -31 -34 -32 0
211 208 -29 0
211 -208 29 0
-211 208 29 0
-211 -208 -29 0
212 32 -30 0
212 -32 30 0
-212 32 30 0
-212 -32 -30 0
-213 208 0
-213 30 0
-213 29 -32 0
-213 -29 32 0
213 -208 29 32 -30 0
213 -208 -29 -32 -30 0
214 211 -27 0
214 -211 27 0
-214 211 27 0
-214 -211 -27 0
215 30 -28 0
215 -30 28 0
-215 30 28 0
-215 -30 -28 0
-216 211 0
-216 28 0
-216 27 -30 0
-216 -27 30 0
216 -211 27 30 -28 0
216 -211 -27 -30 -28 0
217 214 -25 0
217 -214 25 0
-217 214 25 0
-217 -214 -25 0
218 28 -26 0
218 -28 26 0
-218 28 26 0
-218 -28 -26 0
-219 214 0
-219 26 0
-219 25 -28 0
-219 -25 28 0
219 -214 25 28 -26 0
219 -214 -25 -28 -26 0
220 217 -23 0
220 -217 23 0
-220 217 23 0
-220 -217 -23 0
221 26 -24 0
221 -26 24 0
-221 26 24 0
-221 -26 -24 0
-222 217 0
-222 24 0
-222 23 -26 0
-222 -23 26 0
222 -217 23 26 -24 0
222 -217 -23 -26 -24 0
223 220 -21 0
223 -220 21 0
-223 220 21 0
-223 -220 -21 0
224 24 -22 0
224 -24 22 0
-224 24 22 0
-224 -24 -22 0
-225 220 0
-225 22 0
-225 21 -24 0
-225 -21 24 0
225 -220 21 24 -22 0
225 -220 -21 -24 -22 0
226 223 -19 0
226 -223 19 0
-226 223 19 0
-226 -223 -19 0
227 22 -20 0
227 -22 20 0
-227 22 20 0
-227 -22 -20 0
-228 223 0
-228 20 0
-228 19 -22 0
-228 -19 22 0
228 -223 19 22 -20 0
228 -223 -19 -22 -20 0
229 226 -17 0
229 -226 17 0
-229 226 17 0
-229 -226 -17 0
230 20 -18 0
230 -20 18 0
-230 20 18 0
-230 -20 -18 0
-231 226 0
-231 18 0
-231 17 -20 0
-231 -17 20 0
231 -226 17 20 -18 0
231 -226 -17 -20 -18 0
232 229 -15 0
232 -229 15 0
-232 229 15 0
-232 -229 -15 0
233 18 -16 0
233 -18 16 0
-233 18 16 0
-233 -18 -16 0
-234 229 0
-234 16 0
-234 15 -18 0
-234 -15 18 0
234 -229 15 18 -16 0
234 -229 -15 -18 -16 0
235 232 -13 0
235 -232 13 0
-235 232 13 0
-235 -232 -13 0
236 16 -14 0
236 -16 14 0
-236 16 14 0
-236 -16 -14 0
-237 232 0
-237 14 0
-237 13 -16 0
-237 -13 16 0
237 -232 13 16 -14 0
237 -232 -13 -16 -14 0
238 235 -11 0
238 -235 11 0
-238 235 11 0
-238 -235 -11 0
239 14 -12 0
239 -14 12 0
-239 14 12 0
-239 -14 -12 0
-240 235 0
-240 12 0
-240 11 -14 0
-240 -11 14 0
240 -235 11 14 -12 0
240 -235 -11 -14 -12 0
241 238 -9 0
241 -238 9 0
-241 238 9 0
-241 -238 -9 0
242 12 -10 0
242 -12 10 0
-242 12 10 0
-242 -12 -10 0
-243 238 0
-243 10 0
-243 9 -12 0
-243 -9 12 0
243 -238 9 12 -10 0
243 -238 -9 -12 -10 0
244 241 -7 0
244 -241 7 0
-244 241 7 0
-244 -241 -7 0
245 10 -8 0
245 -10 8 0
-245 10 8 0
-245 -10 -8 0
-246 241 0
-246 8 0
-246 7 -10 0
-246 -7 10 0
246 -241 7 10 -8 0
246 -241 -7 -10 -8 0
247 244 -5 0
247 -244 5 0
-247 244 5 0
-247 -244 -5 0
248 8 -6 0
248 -8 6 0
-248 8 6 0
-248 -8 -6 0
-249 244 0
-249 6 0
-249 5 -8 0
-249 -5 8 0
249 -244 5 8 -6 0
249 -244 -5 -8 -6 0
250 247 -3 0
250 -247 3 0
-250 247 3 0
-250 -247 -3 0
251 6 -4 0
251 -6 4 0
-251 6 4 0
-251 -6 -4 0
-252 247 0
-252 4 0
-252 3 -6 0
-252 -3 6 0
252 -247 3 6 -4 0
252 -247 -3 -6 -4 0
253 250 -1 0
253 -250 1 0
-253 250 1 0
-253 -250 -1 0
254 4 -2 0
254 -4 2 0
-254 4 2 0
-254 -4 -2 0
-255 250 0
-255 2 0
-255 1 -4 0
-255 -1 4 0
255 -250 1 4 -2 0
255 -250 -1 -4 -2 0
-253 0
-250 0
-254 0
-247 0
-251 0
-244 0
-248 0
-241 0
-245 0
-238 0
-242 0
-235 0
-239 0
-232 0
-236 0
-229 0
-233 0
-226 0
-230 0
-223 0
-227 0
-220 0
-224 0
-217 0
-221 0
-214 0
-218 0
-211 0
-215 0
-208 0
-212 0
-205 0
-209 0
-202 0
-206 0
-199 0
-203 0
-196 0
-200 0
-193 0
-197 0
-190 0
-194 0
-187 0
-191 0
-184 0
-188 0
-181 0
-185 0
-178 0
-182 0
-175 0
-179 0
-172 0
-176 0
-169 0
-173 0
-166 0
-170 0
-163 0
-167 0
-160 0
-164 0
-157 0
-161 0
-154 0
-158 0
-151 0
-155 0
-148 0
-152 0
-145 0
-149 0
-142 0
-146 0
-139 0
-143 0
-136 0
-140 0
-133 0
-137 0
-130 0
-134 0
-127 0
-131 0
-124 0
-128 0
-121 0
-125 0
-118 0
-122 0
-115 0
-119 0
-112 0
-116 0
-109 0
-113 0
-103 0
-110 0
